0 103 
1 105 
2 107 
3 109 
4 105 
5 104 
6 104 
7 101 
8 101 
9 100 
10 100 
11 98 
12 96 
13 95 
14 95 
15 94 
16 91 
17 89 
18 85 
19 88 
20 83 
21 81 
22 82 
23 83 
24 80 
25 78 
26 74 
27 70 
28 70 
29 69 
30 65 
31 66 
32 64 
33 58 
34 56 
35 52 
36 52 
37 51 
38 50 
39 46 
40 45 
41 41 
42 43 
43 42 
44 38 
45 37 
46 38 
47 35 
48 32 
49 33 
50 32 
51 29 
52 27 
53 28 
54 28 
55 26 
56 25 
57 28 
58 25 
59 25 
60 25 
61 24 
62 24 
63 23 
64 22 
65 22 
66 21 
67 19 
68 22 
69 21 
70 19 
71 18 
72 17 
73 15 
74 14 
75 11 
76 10 
77 9 
78 9 
79 6 
80 5 
81 3 
82 2 
83 0 
84 0 

